p cnf 396 1088
1 -2 0
1 -3 0
1 -4 0
1 -5 0
1 -6 0
1 -7 0
1 -8 0
1 -9 0
1 -10 0
1 -11 0
1 -12 0
1 -13 0
1 -14 0
1 -15 0
16 0
17 -1 0
1 -17 0
-3 18 0
-4 18 0
-5 18 0
-6 18 0
-7 18 0
-8 18 0
-9 18 0
-10 18 0
-11 18 0
-12 18 0
-13 18 0
-14 18 0
-15 18 0
19 0
20 -18 0
18 -20 0
-4 21 0
-5 21 0
-6 21 0
-7 21 0
-8 21 0
-9 21 0
-10 21 0
-11 21 0
-12 21 0
-13 21 0
-14 21 0
-15 21 0
22 0
23 -21 0
21 -23 0
-5 24 0
-6 24 0
-7 24 0
-8 24 0
-9 24 0
-10 24 0
-11 24 0
-12 24 0
-13 24 0
-14 24 0
-15 24 0
25 0
26 -24 0
24 -26 0
-6 27 0
-7 27 0
-8 27 0
-9 27 0
-10 27 0
-11 27 0
-12 27 0
-13 27 0
-14 27 0
-15 27 0
28 0
29 -27 0
27 -29 0
-7 30 0
-8 30 0
-9 30 0
-10 30 0
-11 30 0
-12 30 0
-13 30 0
-14 30 0
-15 30 0
31 0
32 -30 0
30 -32 0
-8 33 0
-9 33 0
-10 33 0
-11 33 0
-12 33 0
-13 33 0
-14 33 0
-15 33 0
34 0
35 -33 0
33 -35 0
36 -33 0
33 -36 0
37 -33 0
33 -37 0
38 -33 0
33 -38 0
39 -33 0
33 -39 0
40 -33 0
33 -40 0
41 -33 0
33 -41 0
42 -33 0
33 -42 0
43 -44 0
43 -45 0
43 -46 0
43 -47 0
43 -48 0
43 -49 0
43 -50 0
43 -51 0
43 -52 0
43 -53 0
54 0
55 -43 0
43 -55 0
-45 56 0
-46 56 0
-47 56 0
-48 56 0
-49 56 0
-50 56 0
-51 56 0
-52 56 0
-53 56 0
57 0
58 -56 0
56 -58 0
-46 59 0
-47 59 0
-48 59 0
-49 59 0
-50 59 0
-51 59 0
-52 59 0
-53 59 0
60 0
61 -59 0
59 -61 0
-47 62 0
-48 62 0
-49 62 0
-50 62 0
-51 62 0
-52 62 0
-53 62 0
63 0
64 -62 0
62 -64 0
-48 65 0
-49 65 0
-50 65 0
-51 65 0
-52 65 0
-53 65 0
66 0
67 -65 0
65 -67 0
68 -65 0
65 -68 0
69 -65 0
65 -69 0
70 -65 0
65 -70 0
71 -65 0
65 -71 0
72 -65 0
65 -72 0
73 -74 0
73 -75 0
73 -76 0
73 -77 0
73 -78 0
73 -79 0
73 -80 0
73 -81 0
73 -82 0
73 -83 0
73 -84 0
73 -85 0
86 0
87 -73 0
73 -87 0
-75 88 0
-76 88 0
-77 88 0
-78 88 0
-79 88 0
-80 88 0
-81 88 0
-82 88 0
-83 88 0
-84 88 0
-85 88 0
89 0
90 -88 0
88 -90 0
-76 91 0
-77 91 0
-78 91 0
-79 91 0
-80 91 0
-81 91 0
-82 91 0
-83 91 0
-84 91 0
-85 91 0
92 0
93 -91 0
91 -93 0
-77 94 0
-78 94 0
-79 94 0
-80 94 0
-81 94 0
-82 94 0
-83 94 0
-84 94 0
-85 94 0
95 0
96 -94 0
94 -96 0
-78 97 0
-79 97 0
-80 97 0
-81 97 0
-82 97 0
-83 97 0
-84 97 0
-85 97 0
98 0
99 -97 0
97 -99 0
100 -97 0
97 -100 0
101 -97 0
97 -101 0
102 -97 0
97 -102 0
103 -97 0
97 -103 0
104 -97 0
97 -104 0
105 -97 0
97 -105 0
106 -97 0
97 -106 0
107 -108 0
107 -109 0
107 -110 0
107 -111 0
107 -112 0
107 -113 0
107 -114 0
107 -115 0
107 -116 0
107 -117 0
107 -118 0
107 -119 0
107 -120 0
107 -121 0
122 0
123 -107 0
107 -123 0
-109 124 0
-110 124 0
-111 124 0
-112 124 0
-113 124 0
-114 124 0
-115 124 0
-116 124 0
-117 124 0
-118 124 0
-119 124 0
-120 124 0
-121 124 0
125 0
126 -124 0
124 -126 0
-110 127 0
-111 127 0
-112 127 0
-113 127 0
-114 127 0
-115 127 0
-116 127 0
-117 127 0
-118 127 0
-119 127 0
-120 127 0
-121 127 0
128 0
129 -127 0
127 -129 0
-111 130 0
-112 130 0
-113 130 0
-114 130 0
-115 130 0
-116 130 0
-117 130 0
-118 130 0
-119 130 0
-120 130 0
-121 130 0
131 0
132 -130 0
130 -132 0
-112 133 0
-113 133 0
-114 133 0
-115 133 0
-116 133 0
-117 133 0
-118 133 0
-119 133 0
-120 133 0
-121 133 0
134 0
135 -133 0
133 -135 0
-113 136 0
-114 136 0
-115 136 0
-116 136 0
-117 136 0
-118 136 0
-119 136 0
-120 136 0
-121 136 0
137 0
138 -136 0
136 -138 0
-114 139 0
-115 139 0
-116 139 0
-117 139 0
-118 139 0
-119 139 0
-120 139 0
-121 139 0
140 0
141 -139 0
139 -141 0
-115 142 0
-116 142 0
-117 142 0
-118 142 0
-119 142 0
-120 142 0
-121 142 0
143 0
144 -142 0
142 -144 0
145 -142 0
142 -145 0
146 -142 0
142 -146 0
147 -142 0
142 -147 0
148 -142 0
142 -148 0
149 -142 0
142 -149 0
150 -142 0
142 -150 0
151 -152 0
151 -153 0
151 -154 0
151 -155 0
151 -156 0
151 -157 0
151 -158 0
151 -159 0
151 -160 0
151 -161 0
151 -162 0
163 0
164 -151 0
151 -164 0
-153 165 0
-154 165 0
-155 165 0
-156 165 0
-157 165 0
-158 165 0
-159 165 0
-160 165 0
-161 165 0
-162 165 0
166 0
167 -165 0
165 -167 0
-154 168 0
-155 168 0
-156 168 0
-157 168 0
-158 168 0
-159 168 0
-160 168 0
-161 168 0
-162 168 0
169 0
170 -168 0
168 -170 0
-155 171 0
-156 171 0
-157 171 0
-158 171 0
-159 171 0
-160 171 0
-161 171 0
-162 171 0
172 0
173 -171 0
171 -173 0
-156 174 0
-157 174 0
-158 174 0
-159 174 0
-160 174 0
-161 174 0
-162 174 0
175 0
176 -174 0
174 -176 0
177 -174 0
174 -177 0
178 -174 0
174 -178 0
179 -174 0
174 -179 0
180 -174 0
174 -180 0
181 -174 0
174 -181 0
182 -174 0
174 -182 0
183 -184 0
183 -185 0
183 -186 0
183 -187 0
183 -188 0
183 -189 0
183 -190 0
183 -191 0
183 -192 0
183 -193 0
183 -194 0
195 0
196 -183 0
183 -196 0
-185 197 0
-186 197 0
-187 197 0
-188 197 0
-189 197 0
-190 197 0
-191 197 0
-192 197 0
-193 197 0
-194 197 0
198 0
199 -197 0
197 -199 0
-186 200 0
-187 200 0
-188 200 0
-189 200 0
-190 200 0
-191 200 0
-192 200 0
-193 200 0
-194 200 0
201 0
202 -200 0
200 -202 0
-187 203 0
-188 203 0
-189 203 0
-190 203 0
-191 203 0
-192 203 0
-193 203 0
-194 203 0
204 0
205 -203 0
203 -205 0
-188 206 0
-189 206 0
-190 206 0
-191 206 0
-192 206 0
-193 206 0
-194 206 0
207 0
208 -206 0
206 -208 0
-189 209 0
-190 209 0
-191 209 0
-192 209 0
-193 209 0
-194 209 0
210 0
211 -209 0
209 -211 0
212 -209 0
209 -212 0
213 -209 0
209 -213 0
214 -209 0
209 -214 0
215 -209 0
209 -215 0
216 -209 0
209 -216 0
217 -218 0
217 -219 0
217 -220 0
217 -221 0
217 -222 0
217 -223 0
217 -224 0
217 -225 0
217 -226 0
217 -227 0
217 -228 0
217 -229 0
217 -230 0
217 -231 0
217 -232 0
233 0
234 -217 0
217 -234 0
-219 235 0
-220 235 0
-221 235 0
-222 235 0
-223 235 0
-224 235 0
-225 235 0
-226 235 0
-227 235 0
-228 235 0
-229 235 0
-230 235 0
-231 235 0
-232 235 0
236 0
237 -235 0
235 -237 0
-220 238 0
-221 238 0
-222 238 0
-223 238 0
-224 238 0
-225 238 0
-226 238 0
-227 238 0
-228 238 0
-229 238 0
-230 238 0
-231 238 0
-232 238 0
239 0
240 -238 0
238 -240 0
-221 241 0
-222 241 0
-223 241 0
-224 241 0
-225 241 0
-226 241 0
-227 241 0
-228 241 0
-229 241 0
-230 241 0
-231 241 0
-232 241 0
242 0
243 -241 0
241 -243 0
-222 244 0
-223 244 0
-224 244 0
-225 244 0
-226 244 0
-227 244 0
-228 244 0
-229 244 0
-230 244 0
-231 244 0
-232 244 0
245 0
246 -244 0
244 -246 0
-223 247 0
-224 247 0
-225 247 0
-226 247 0
-227 247 0
-228 247 0
-229 247 0
-230 247 0
-231 247 0
-232 247 0
248 0
249 -247 0
247 -249 0
-224 250 0
-225 250 0
-226 250 0
-227 250 0
-228 250 0
-229 250 0
-230 250 0
-231 250 0
-232 250 0
251 0
252 -250 0
250 -252 0
-225 253 0
-226 253 0
-227 253 0
-228 253 0
-229 253 0
-230 253 0
-231 253 0
-232 253 0
254 0
255 -253 0
253 -255 0
-226 256 0
-227 256 0
-228 256 0
-229 256 0
-230 256 0
-231 256 0
-232 256 0
257 0
258 -256 0
256 -258 0
259 -256 0
256 -259 0
260 -256 0
256 -260 0
261 -256 0
256 -261 0
262 -256 0
256 -262 0
263 -256 0
256 -263 0
264 -256 0
256 -264 0
265 -266 0
265 -267 0
265 -268 0
265 -269 0
265 -270 0
265 -271 0
265 -272 0
265 -273 0
265 -274 0
265 -275 0
265 -276 0
277 0
278 -265 0
265 -278 0
-267 279 0
-268 279 0
-269 279 0
-270 279 0
-271 279 0
-272 279 0
-273 279 0
-274 279 0
-275 279 0
-276 279 0
280 0
281 -279 0
279 -281 0
-268 282 0
-269 282 0
-270 282 0
-271 282 0
-272 282 0
-273 282 0
-274 282 0
-275 282 0
-276 282 0
283 0
284 -282 0
282 -284 0
-269 285 0
-270 285 0
-271 285 0
-272 285 0
-273 285 0
-274 285 0
-275 285 0
-276 285 0
286 0
287 -285 0
285 -287 0
-270 288 0
-271 288 0
-272 288 0
-273 288 0
-274 288 0
-275 288 0
-276 288 0
289 0
290 -288 0
288 -290 0
291 -288 0
288 -291 0
292 -288 0
288 -292 0
293 -288 0
288 -293 0
294 -288 0
288 -294 0
295 -288 0
288 -295 0
296 -288 0
288 -296 0
297 -298 0
297 -299 0
297 -300 0
297 -301 0
297 -302 0
297 -303 0
297 -304 0
297 -305 0
297 -306 0
297 -307 0
297 -308 0
297 -309 0
297 -310 0
297 -311 0
312 0
313 -297 0
297 -313 0
-299 314 0
-300 314 0
-301 314 0
-302 314 0
-303 314 0
-304 314 0
-305 314 0
-306 314 0
-307 314 0
-308 314 0
-309 314 0
-310 314 0
-311 314 0
315 0
316 -314 0
314 -316 0
-300 317 0
-301 317 0
-302 317 0
-303 317 0
-304 317 0
-305 317 0
-306 317 0
-307 317 0
-308 317 0
-309 317 0
-310 317 0
-311 317 0
318 0
319 -317 0
317 -319 0
-301 320 0
-302 320 0
-303 320 0
-304 320 0
-305 320 0
-306 320 0
-307 320 0
-308 320 0
-309 320 0
-310 320 0
-311 320 0
321 0
322 -320 0
320 -322 0
-302 323 0
-303 323 0
-304 323 0
-305 323 0
-306 323 0
-307 323 0
-308 323 0
-309 323 0
-310 323 0
-311 323 0
324 0
325 -323 0
323 -325 0
-303 326 0
-304 326 0
-305 326 0
-306 326 0
-307 326 0
-308 326 0
-309 326 0
-310 326 0
-311 326 0
327 0
328 -326 0
326 -328 0
-304 329 0
-305 329 0
-306 329 0
-307 329 0
-308 329 0
-309 329 0
-310 329 0
-311 329 0
330 0
331 -329 0
329 -331 0
-305 332 0
-306 332 0
-307 332 0
-308 332 0
-309 332 0
-310 332 0
-311 332 0
333 0
334 -332 0
332 -334 0
335 -332 0
332 -335 0
336 -332 0
332 -336 0
337 -332 0
332 -337 0
338 -332 0
332 -338 0
339 -332 0
332 -339 0
340 -332 0
332 -340 0
341 -342 0
341 -343 0
341 -344 0
341 -345 0
341 -346 0
341 -347 0
341 -348 0
341 -349 0
341 -350 0
341 -351 0
341 -352 0
341 -353 0
354 0
355 -341 0
341 -355 0
-343 356 0
-344 356 0
-345 356 0
-346 356 0
-347 356 0
-348 356 0
-349 356 0
-350 356 0
-351 356 0
-352 356 0
-353 356 0
357 0
358 -356 0
356 -358 0
-344 359 0
-345 359 0
-346 359 0
-347 359 0
-348 359 0
-349 359 0
-350 359 0
-351 359 0
-352 359 0
-353 359 0
360 0
361 -359 0
359 -361 0
-345 362 0
-346 362 0
-347 362 0
-348 362 0
-349 362 0
-350 362 0
-351 362 0
-352 362 0
-353 362 0
363 0
364 -362 0
362 -364 0
-346 365 0
-347 365 0
-348 365 0
-349 365 0
-350 365 0
-351 365 0
-352 365 0
-353 365 0
366 0
367 -365 0
365 -367 0
-347 368 0
-348 368 0
-349 368 0
-350 368 0
-351 368 0
-352 368 0
-353 368 0
369 0
370 -368 0
368 -370 0
371 -368 0
368 -371 0
372 -368 0
368 -372 0
373 -368 0
368 -373 0
374 -368 0
368 -374 0
375 -368 0
368 -375 0
376 -368 0
368 -376 0
377 -378 0
378 -377 0
379 -380 0
380 -379 0
381 -382 0
382 -381 0
383 -384 0
384 -383 0
385 -386 0
386 -385 0
387 -388 0
388 -387 0
389 -390 0
390 -389 0
391 -392 0
392 -391 0
393 -394 0
394 -393 0
395 -396 0
396 -395 0
17 0
55 0
87 0
123 0
164 0
196 0
234 0
278 0
313 0
355 0
-377 0
-379 0
-381 0
-383 0
-385 0
-387 0
-389 0
-391 0
-393 0
-395 0
115 -273 0
273 -115 0
116 -274 0
274 -116 0
117 -275 0
275 -117 0
118 -276 0
276 -118 0
119 -270 0
270 -119 0
120 -271 0
271 -120 0
121 -272 0
272 -121 0
378 -380 0
380 -378 0
378 -382 0
382 -378 0
378 -384 0
384 -378 0
378 -386 0
386 -378 0
378 -388 0
388 -378 0
378 -390 0
390 -378 0
378 -392 0
392 -378 0
378 -394 0
394 -378 0
378 -396 0
396 -378 0
380 -382 0
382 -380 0
380 -384 0
384 -380 0
380 -386 0
386 -380 0
380 -388 0
388 -380 0
380 -390 0
390 -380 0
380 -392 0
392 -380 0
380 -394 0
394 -380 0
380 -396 0
396 -380 0
382 -384 0
384 -382 0
382 -386 0
386 -382 0
382 -388 0
388 -382 0
382 -390 0
390 -382 0
382 -392 0
392 -382 0
382 -394 0
394 -382 0
382 -396 0
396 -382 0
384 -386 0
386 -384 0
384 -388 0
388 -384 0
384 -390 0
390 -384 0
384 -392 0
392 -384 0
384 -394 0
394 -384 0
384 -396 0
396 -384 0
386 -388 0
388 -386 0
386 -390 0
390 -386 0
386 -392 0
392 -386 0
386 -394 0
394 -386 0
386 -396 0
396 -386 0
388 -390 0
390 -388 0
388 -392 0
392 -388 0
388 -394 0
394 -388 0
388 -396 0
396 -388 0
390 -392 0
392 -390 0
390 -394 0
394 -390 0
390 -396 0
396 -390 0
392 -394 0
394 -392 0
392 -396 0
396 -392 0
394 -396 0
396 -394 0
